Route #1: 26 12 58 38 11 53 35 7
Route #2: 67 46 8 54 13 57 15 27 52 34
Route #3: 19 14 59 66 65 10 72 39
Route #4: 3 44 32 50 18 55 25 31 9
Route #5: 17 40 33 73 1 62 28 21
Route #6: 30 5 47 36 37 20 70 60 71 69 61 22
Route #7: 63 43 42 64 41 56 23 24 49 16 51
Route #8: 4 45 29 48 74 2 6 68 75
Cost 809